c Read 64 clauses.  24 variables
c Breaking ties randomly with seed 1
c Placed 64 terms into 11 buckets.
c Bucket 1 Reduced to term with 7 nodes
c Bucket 2 Reduced to term with 7 nodes
c Bucket 3 Reduced to term with 9 nodes
c Bucket 4 Reduced to term with 7 nodes
c Bucket 5 Reduced to term with 7 nodes
c Bucket 6 Reduced to term with 9 nodes
c Bucket 7 Reduced to term with 7 nodes
c Bucket 8 Reduced to term with 11 nodes
c Bucket 9 Reduced to term with 11 nodes
c Bucket 10 Reduced to term with 7 nodes
c Bucket 11 Reduced to term with 13 nodes
c Bucket 12 Reduced to term with 7 nodes
c Bucket 13 Reduced to term with 13 nodes
c Bucket 14 Reduced to term with 13 nodes
s UNSATISFIABLE

c Cache statistics
c ----------------
c Unique Access:  801
c Unique Chain:   1
c Unique Hit:     158
c Unique Miss:    619
c => Hit rate =   0.20
c Operator Hits:  340
c Operator Miss:  793
c => Hit rate =   0.30
c Swap count =    0

c BDD statistics
c ----------------
c Total BDD nodes produced: 619
c Input variables: 24
c Input clauses: 64
c Total clauses: 3461
c Unused+non-BDD clause IDs: 285 (8.2%)
c Maximum live clauses: 2864
c Deleted clauses: 3397
c Final live clauses: 64
c Total variables: 641
c Elapsed seconds: 0.004
-rw-r--r--  1 bryant  staff  109820 Mar 10 22:52 chew-0010-123456.lrat
c parsed a formula with 24 variables and 64 clauses
c VERIFIED
c allocated 1024 16605 240
c Added clauses = 3461.  Deleted clauses = 597.  Max live clauses = 2864
c verification time = 0.01 secs
